96 76 58 54 20 14 56 38 57 1 85 77 75 89 15 17 34 3 27 7 41 29 39 71 69 68 87 32 25 30 52 62 13 93 48 98 59 64 88 55 51 24 53 9 46 45 49 8 12 78 50 60 18 23 33 99 90 43 10 0 86 95 97 42 91 79 2 40 92 65 19 61 11 74 28 44 35 84 66 37 70 21 81 80 67 73 22 36 47 72 4 5 63 16 31 26 6 82 94 83 

